3
46
26
43
14
44
15
38
17
23
33
31
32
40
39
9
26
24
1
23
13
36
31
11
47
20
32
49
34
26
8
22
44
52
1
18
16
15
7
44
20
1
51
26
16
39
39
44
6
29
50
43
35
45
37
20
31
18
47
27
13
24
29
48
49
15
14
16
27
22
42
25
15
35
36
15
20
28
17
25
15
39
16
39
36
27
6
36
52
16
23
46
29
15
39
16
2
8
48
20
